nK = 1493;
nT = 8;
nI = 21;
L = 35;
TT = 338;
np = 1;
nc = 3;
b = [31, 24, 50, 41, 51, 59, 49, 33, 41, 39, 68, 63, 47, 64, 27, 49, 23, 67, 49, 65, 41];
d = [132, 124, 135, 139, 92, 100, 144, 81, 98, 123, 139, 118, 85, 131, 77, 86, 79, 143, 125, 98, 87];
m = [2, 1.8, 1.7, 1.6, 1.5, 2.3, 1.1, 1.3, 2.1, 2.2, 1.3, 2, 1.9, 1.1, 2.1, 1.1, 2.3, 1, 2.3, 1.3, 1.7];
pt = [0.3, 0.23, 0.26, 0.29, 0.29, 0.22, 0.35, 0.22];
st = [14.1, 11.96, 11.96, 16.53, 11.89, 12.1, 14.35, 9.46];
arc = {<1, 0, 1, 1, 0, 0, 0, [1, 1, 1, 1, 1, 1, 1, 1]>, <2, 1, 2, 1, 0, 0, 0, [1, 1, 1, 1, 1, 1, 1, 1]>, <3, 2, 3, 1, 0, 0, 0, [1, 1, 1, 1, 1, 1, 1, 1]>, <4, 3, 4, 1, 0, 0, 0, [1, 1, 1, 1, 1, 1, 1, 1]>, <5, 4, 5, 1, 0, 0, 0, [1, 1, 1, 1, 1, 1, 1, 1]>, <6, 5, 6, 1, 0, 0, 0, [1, 1, 1, 1, 1, 1, 1, 1]>, <7, 6, 7, 1, 0, 0, 0, [1, 1, 1, 1, 1, 1, 1, 1]>, <8, 7, 8, 1, 0, 0, 0, [1, 1, 1, 1, 1, 1, 1, 1]>, <9, 8, 9, 1, 0, 0, 0, [1, 1, 1, 1, 1, 1, 1, 1]>, <10, 9, 10, 1, 0, 0, 0, [1, 1, 1, 1, 1, 1, 1, 1]>, <11, 10, 11, 1, 0, 0, 0, [1, 1, 1, 1, 1, 1, 1, 1]>, <12, 11, 12, 1, 0, 0, 0, [1, 1, 1, 1, 1, 1, 1, 1]>, <13, 12, 13, 1, 0, 0, 0, [1, 1, 1, 1, 1, 1, 1, 1]>, <14, 13, 14, 1, 0, 0, 0, [1, 1, 1, 1, 1, 1, 1, 1]>, <15, 14, 15, 1, 0, 0, 0, [1, 1, 1, 1, 1, 1, 1, 1]>, <16, 15, 16, 1, 0, 0, 0, [1, 1, 1, 1, 1, 1, 1, 1]>, <17, 16, 17, 1, 0, 0, 0, [1, 1, 1, 1, 1, 1, 1, 1]>, <18, 17, 18, 1, 0, 0, 0, [1, 1, 1, 1, 1, 1, 1, 1]>, <19, 18, 19, 1, 0, 0, 0, [1, 1, 1, 1, 1, 1, 1, 1]>, <20, 19, 20, 1, 0, 0, 0, [1, 1, 1, 1, 1, 1, 1, 1]>, <21, 20, 21, 1, 0, 0, 0, [1, 1, 1, 1, 1, 1, 1, 1]>, <22, 21, 22, 1, 0, 0, 0, [1, 1, 1, 1, 1, 1, 1, 1]>, <23, 22, 23, 1, 0, 0, 0, [1, 1, 1, 1, 1, 1, 1, 1]>, <24, 23, 24, 1, 0, 0, 0, [1, 1, 1, 1, 1, 1, 1, 1]>, <25, 24, 25, 1, 0, 0, 0, [1, 1, 1, 1, 1, 1, 1, 1]>, <26, 25, 26, 1, 0, 0, 0, [1, 1, 1, 1, 1, 1, 1, 1]>, <27, 26, 27, 1, 0, 0, 0, [1, 1, 1, 1, 1, 1, 1, 1]>, <28, 27, 28, 1, 0, 0, 0, [1, 1, 1, 1, 1, 1, 1, 1]>, <29, 28, 29, 1, 0, 0, 0, [1, 1, 1, 1, 1, 1, 1, 1]>, <30, 29, 30, 1, 0, 0, 0, [1, 1, 1, 1, 1, 1, 1, 1]>, <31, 30, 31, 1, 0, 0, 0, [1, 1, 1, 1, 1, 1, 1, 1]>, <32, 31, 32, 1, 0, 0, 0, [1, 1, 1, 1, 1, 1, 1, 1]>, <33, 32, 33, 1, 0, 0, 0, [1, 1, 1, 1, 1, 1, 1, 1]>, <34, 33, 34, 1, 0, 0, 0, [1, 1, 1, 1, 1, 1, 1, 1]>, <35, 34, 35, 1, 0, 0, 0, [1, 1, 1, 1, 1, 1, 1, 1]>, <36, 5, 16, 11, 1, 0, 1, [1, 0, 0, 0, 0, 0, 0, 1]>, <37, 6, 17, 11, 1, 0, 1, [1, 0, 0, 0, 0, 0, 0, 1]>, <38, 14, 25, 11, 1, 0, 1, [1, 0, 0, 0, 0, 0, 0, 1]>, <39, 15, 26, 11, 1, 0, 1, [1, 0, 0, 0, 0, 0, 0, 1]>, <40, 20, 31, 11, 1, 0, 1, [1, 0, 0, 0, 0, 0, 0, 1]>, <41, 21, 32, 11, 1, 0, 1, [1, 0, 0, 0, 0, 0, 0, 1]>, <42, 22, 33, 11, 1, 0, 1, [1, 0, 0, 0, 0, 0, 0, 1]>, <43, 23, 34, 11, 1, 0, 1, [1, 0, 0, 0, 0, 0, 0, 1]>, <44, 24, 35, 11, 1, 0, 1, [1, 0, 0, 0, 0, 0, 0, 1]>, <45, 2, 17, 15, 2, 0, 0, [0, 0, 0, 0, 1, 1, 0, 0]>, <46, 3, 18, 15, 2, 0, 0, [0, 0, 0, 0, 1, 1, 0, 0]>, <47, 4, 19, 15, 2, 0, 0, [0, 0, 0, 0, 1, 1, 0, 0]>, <48, 5, 20, 15, 2, 0, 0, [0, 0, 0, 0, 1, 1, 0, 0]>, <49, 6, 21, 15, 2, 0, 0, [0, 0, 0, 0, 1, 1, 0, 0]>, <50, 11, 26, 15, 2, 0, 0, [0, 0, 0, 0, 1, 1, 0, 0]>, <51, 12, 27, 15, 2, 0, 0, [0, 0, 0, 0, 1, 1, 0, 0]>, <52, 13, 28, 15, 2, 0, 0, [0, 0, 0, 0, 1, 1, 0, 0]>, <53, 14, 29, 15, 2, 0, 0, [0, 0, 0, 0, 1, 1, 0, 0]>, <54, 15, 30, 15, 2, 0, 0, [0, 0, 0, 0, 1, 1, 0, 0]>, <55, 16, 31, 15, 2, 0, 0, [0, 0, 0, 0, 1, 1, 0, 0]>, <56, 17, 32, 15, 2, 0, 0, [0, 0, 0, 0, 1, 1, 0, 0]>, <57, 18, 33, 15, 2, 0, 0, [0, 0, 0, 0, 1, 1, 0, 0]>, <58, 19, 34, 15, 2, 0, 0, [0, 0, 0, 0, 1, 1, 0, 0]>, <59, 20, 35, 15, 2, 0, 0, [0, 0, 0, 0, 1, 1, 0, 0]>, <60, 5, 15, 10, 3, 1, 0, [0, 1, 1, 0, 0, 0, 0, 0]>, <61, 6, 16, 10, 3, 1, 0, [0, 1, 1, 0, 0, 0, 0, 0]>, <62, 14, 24, 10, 3, 1, 0, [0, 1, 1, 0, 0, 0, 0, 0]>, <63, 15, 25, 10, 3, 1, 0, [0, 1, 1, 0, 0, 0, 0, 0]>, <64, 21, 31, 10, 3, 1, 0, [0, 1, 1, 0, 0, 0, 0, 0]>, <65, 22, 32, 10, 3, 1, 0, [0, 1, 1, 0, 0, 0, 0, 0]>, <66, 23, 33, 10, 3, 1, 0, [0, 1, 1, 0, 0, 0, 0, 0]>, <67, 24, 34, 10, 3, 1, 0, [0, 1, 1, 0, 0, 0, 0, 0]>, <68, 5, 16, 11, 4, 0, 0, [0, 1, 1, 0, 0, 0, 0, 0]>, <69, 6, 17, 11, 4, 0, 0, [0, 1, 1, 0, 0, 0, 0, 0]>, <70, 14, 25, 11, 4, 0, 0, [0, 1, 1, 0, 0, 0, 0, 0]>, <71, 15, 26, 11, 4, 0, 0, [0, 1, 1, 0, 0, 0, 0, 0]>, <72, 20, 31, 11, 4, 0, 0, [0, 1, 1, 0, 0, 0, 0, 0]>, <73, 21, 32, 11, 4, 0, 0, [0, 1, 1, 0, 0, 0, 0, 0]>, <74, 22, 33, 11, 4, 0, 0, [0, 1, 1, 0, 0, 0, 0, 0]>, <75, 23, 34, 11, 4, 0, 0, [0, 1, 1, 0, 0, 0, 0, 0]>, <76, 24, 35, 11, 4, 0, 0, [0, 1, 1, 0, 0, 0, 0, 0]>, <77, 4, 17, 13, 5, 0, 1, [0, 0, 0, 0, 1, 1, 0, 0]>, <78, 5, 18, 13, 5, 0, 1, [0, 0, 0, 0, 1, 1, 0, 0]>, <79, 6, 19, 13, 5, 0, 1, [0, 0, 0, 0, 1, 1, 0, 0]>, <80, 13, 26, 13, 5, 0, 1, [0, 0, 0, 0, 1, 1, 0, 0]>, <81, 14, 27, 13, 5, 0, 1, [0, 0, 0, 0, 1, 1, 0, 0]>, <82, 15, 28, 13, 5, 0, 1, [0, 0, 0, 0, 1, 1, 0, 0]>, <83, 18, 31, 13, 5, 0, 1, [0, 0, 0, 0, 1, 1, 0, 0]>, <84, 19, 32, 13, 5, 0, 1, [0, 0, 0, 0, 1, 1, 0, 0]>, <85, 20, 33, 13, 5, 0, 1, [0, 0, 0, 0, 1, 1, 0, 0]>, <86, 21, 34, 13, 5, 0, 1, [0, 0, 0, 0, 1, 1, 0, 0]>, <87, 22, 35, 13, 5, 0, 1, [0, 0, 0, 0, 1, 1, 0, 0]>, <88, 4, 17, 13, 6, 0, 1, [0, 0, 1, 1, 0, 0, 0, 0]>, <89, 5, 18, 13, 6, 0, 1, [0, 0, 1, 1, 0, 0, 0, 0]>, <90, 6, 19, 13, 6, 0, 1, [0, 0, 1, 1, 0, 0, 0, 0]>, <91, 13, 26, 13, 6, 0, 1, [0, 0, 1, 1, 0, 0, 0, 0]>, <92, 14, 27, 13, 6, 0, 1, [0, 0, 1, 1, 0, 0, 0, 0]>, <93, 15, 28, 13, 6, 0, 1, [0, 0, 1, 1, 0, 0, 0, 0]>, <94, 18, 31, 13, 6, 0, 1, [0, 0, 1, 1, 0, 0, 0, 0]>, <95, 19, 32, 13, 6, 0, 1, [0, 0, 1, 1, 0, 0, 0, 0]>, <96, 20, 33, 13, 6, 0, 1, [0, 0, 1, 1, 0, 0, 0, 0]>, <97, 21, 34, 13, 6, 0, 1, [0, 0, 1, 1, 0, 0, 0, 0]>, <98, 22, 35, 13, 6, 0, 1, [0, 0, 1, 1, 0, 0, 0, 0]>, <99, 5, 16, 11, 7, 0, 1, [0, 0, 0, 0, 1, 1, 0, 0]>, <100, 6, 17, 11, 7, 0, 1, [0, 0, 0, 0, 1, 1, 0, 0]>, <101, 14, 25, 11, 7, 0, 1, [0, 0, 0, 0, 1, 1, 0, 0]>, <102, 15, 26, 11, 7, 0, 1, [0, 0, 0, 0, 1, 1, 0, 0]>, <103, 20, 31, 11, 7, 0, 1, [0, 0, 0, 0, 1, 1, 0, 0]>, <104, 21, 32, 11, 7, 0, 1, [0, 0, 0, 0, 1, 1, 0, 0]>, <105, 22, 33, 11, 7, 0, 1, [0, 0, 0, 0, 1, 1, 0, 0]>, <106, 23, 34, 11, 7, 0, 1, [0, 0, 0, 0, 1, 1, 0, 0]>, <107, 24, 35, 11, 7, 0, 1, [0, 0, 0, 0, 1, 1, 0, 0]>, <108, 3, 17, 14, 8, 1, 0, [1, 0, 0, 0, 0, 0, 0, 1]>, <109, 4, 18, 14, 8, 1, 0, [1, 0, 0, 0, 0, 0, 0, 1]>, <110, 5, 19, 14, 8, 1, 0, [1, 0, 0, 0, 0, 0, 0, 1]>, <111, 6, 20, 14, 8, 1, 0, [1, 0, 0, 0, 0, 0, 0, 1]>, <112, 12, 26, 14, 8, 1, 0, [1, 0, 0, 0, 0, 0, 0, 1]>, <113, 13, 27, 14, 8, 1, 0, [1, 0, 0, 0, 0, 0, 0, 1]>, <114, 14, 28, 14, 8, 1, 0, [1, 0, 0, 0, 0, 0, 0, 1]>, <115, 15, 29, 14, 8, 1, 0, [1, 0, 0, 0, 0, 0, 0, 1]>, <116, 17, 31, 14, 8, 1, 0, [1, 0, 0, 0, 0, 0, 0, 1]>, <117, 18, 32, 14, 8, 1, 0, [1, 0, 0, 0, 0, 0, 0, 1]>, <118, 19, 33, 14, 8, 1, 0, [1, 0, 0, 0, 0, 0, 0, 1]>, <119, 20, 34, 14, 8, 1, 0, [1, 0, 0, 0, 0, 0, 0, 1]>, <120, 21, 35, 14, 8, 1, 0, [1, 0, 0, 0, 0, 0, 0, 1]>, <121, 5, 14, 9, 9, 0, 0, [0, 0, 1, 1, 0, 0, 0, 0]>, <122, 6, 15, 9, 9, 0, 0, [0, 0, 1, 1, 0, 0, 0, 0]>, <123, 14, 23, 9, 9, 0, 0, [0, 0, 1, 1, 0, 0, 0, 0]>, <124, 15, 24, 9, 9, 0, 0, [0, 0, 1, 1, 0, 0, 0, 0]>, <125, 22, 31, 9, 9, 0, 0, [0, 0, 1, 1, 0, 0, 0, 0]>, <126, 23, 32, 9, 9, 0, 0, [0, 0, 1, 1, 0, 0, 0, 0]>, <127, 24, 33, 9, 9, 0, 0, [0, 0, 1, 1, 0, 0, 0, 0]>, <128, 5, 17, 12, 10, 0, 0, [0, 0, 0, 1, 1, 0, 0, 0]>, <129, 6, 18, 12, 10, 0, 0, [0, 0, 0, 1, 1, 0, 0, 0]>, <130, 14, 26, 12, 10, 0, 0, [0, 0, 0, 1, 1, 0, 0, 0]>, <131, 15, 27, 12, 10, 0, 0, [0, 0, 0, 1, 1, 0, 0, 0]>, <132, 19, 31, 12, 10, 0, 0, [0, 0, 0, 1, 1, 0, 0, 0]>, <133, 20, 32, 12, 10, 0, 0, [0, 0, 0, 1, 1, 0, 0, 0]>, <134, 21, 33, 12, 10, 0, 0, [0, 0, 0, 1, 1, 0, 0, 0]>, <135, 22, 34, 12, 10, 0, 0, [0, 0, 0, 1, 1, 0, 0, 0]>, <136, 23, 35, 12, 10, 0, 0, [0, 0, 0, 1, 1, 0, 0, 0]>, <137, 5, 17, 12, 11, 1, 0, [0, 1, 1, 0, 0, 0, 0, 0]>, <138, 6, 18, 12, 11, 1, 0, [0, 1, 1, 0, 0, 0, 0, 0]>, <139, 14, 26, 12, 11, 1, 0, [0, 1, 1, 0, 0, 0, 0, 0]>, <140, 15, 27, 12, 11, 1, 0, [0, 1, 1, 0, 0, 0, 0, 0]>, <141, 19, 31, 12, 11, 1, 0, [0, 1, 1, 0, 0, 0, 0, 0]>, <142, 20, 32, 12, 11, 1, 0, [0, 1, 1, 0, 0, 0, 0, 0]>, <143, 21, 33, 12, 11, 1, 0, [0, 1, 1, 0, 0, 0, 0, 0]>, <144, 22, 34, 12, 11, 1, 0, [0, 1, 1, 0, 0, 0, 0, 0]>, <145, 23, 35, 12, 11, 1, 0, [0, 1, 1, 0, 0, 0, 0, 0]>, <146, 5, 17, 12, 12, 0, 1, [0, 0, 0, 0, 0, 0, 1, 1]>, <147, 6, 18, 12, 12, 0, 1, [0, 0, 0, 0, 0, 0, 1, 1]>, <148, 14, 26, 12, 12, 0, 1, [0, 0, 0, 0, 0, 0, 1, 1]>, <149, 15, 27, 12, 12, 0, 1, [0, 0, 0, 0, 0, 0, 1, 1]>, <150, 19, 31, 12, 12, 0, 1, [0, 0, 0, 0, 0, 0, 1, 1]>, <151, 20, 32, 12, 12, 0, 1, [0, 0, 0, 0, 0, 0, 1, 1]>, <152, 21, 33, 12, 12, 0, 1, [0, 0, 0, 0, 0, 0, 1, 1]>, <153, 22, 34, 12, 12, 0, 1, [0, 0, 0, 0, 0, 0, 1, 1]>, <154, 23, 35, 12, 12, 0, 1, [0, 0, 0, 0, 0, 0, 1, 1]>, <155, 4, 17, 13, 13, 1, 0, [0, 0, 0, 0, 0, 1, 1, 0]>, <156, 5, 18, 13, 13, 1, 0, [0, 0, 0, 0, 0, 1, 1, 0]>, <157, 6, 19, 13, 13, 1, 0, [0, 0, 0, 0, 0, 1, 1, 0]>, <158, 13, 26, 13, 13, 1, 0, [0, 0, 0, 0, 0, 1, 1, 0]>, <159, 14, 27, 13, 13, 1, 0, [0, 0, 0, 0, 0, 1, 1, 0]>, <160, 15, 28, 13, 13, 1, 0, [0, 0, 0, 0, 0, 1, 1, 0]>, <161, 18, 31, 13, 13, 1, 0, [0, 0, 0, 0, 0, 1, 1, 0]>, <162, 19, 32, 13, 13, 1, 0, [0, 0, 0, 0, 0, 1, 1, 0]>, <163, 20, 33, 13, 13, 1, 0, [0, 0, 0, 0, 0, 1, 1, 0]>, <164, 21, 34, 13, 13, 1, 0, [0, 0, 0, 0, 0, 1, 1, 0]>, <165, 22, 35, 13, 13, 1, 0, [0, 0, 0, 0, 0, 1, 1, 0]>, <166, 4, 17, 13, 14, 0, 0, [0, 0, 0, 0, 0, 1, 1, 0]>, <167, 5, 18, 13, 14, 0, 0, [0, 0, 0, 0, 0, 1, 1, 0]>, <168, 6, 19, 13, 14, 0, 0, [0, 0, 0, 0, 0, 1, 1, 0]>, <169, 13, 26, 13, 14, 0, 0, [0, 0, 0, 0, 0, 1, 1, 0]>, <170, 14, 27, 13, 14, 0, 0, [0, 0, 0, 0, 0, 1, 1, 0]>, <171, 15, 28, 13, 14, 0, 0, [0, 0, 0, 0, 0, 1, 1, 0]>, <172, 18, 31, 13, 14, 0, 0, [0, 0, 0, 0, 0, 1, 1, 0]>, <173, 19, 32, 13, 14, 0, 0, [0, 0, 0, 0, 0, 1, 1, 0]>, <174, 20, 33, 13, 14, 0, 0, [0, 0, 0, 0, 0, 1, 1, 0]>, <175, 21, 34, 13, 14, 0, 0, [0, 0, 0, 0, 0, 1, 1, 0]>, <176, 22, 35, 13, 14, 0, 0, [0, 0, 0, 0, 0, 1, 1, 0]>, <177, 3, 17, 14, 15, 0, 1, [1, 1, 0, 0, 0, 0, 0, 0]>, <178, 4, 18, 14, 15, 0, 1, [1, 1, 0, 0, 0, 0, 0, 0]>, <179, 5, 19, 14, 15, 0, 1, [1, 1, 0, 0, 0, 0, 0, 0]>, <180, 6, 20, 14, 15, 0, 1, [1, 1, 0, 0, 0, 0, 0, 0]>, <181, 12, 26, 14, 15, 0, 1, [1, 1, 0, 0, 0, 0, 0, 0]>, <182, 13, 27, 14, 15, 0, 1, [1, 1, 0, 0, 0, 0, 0, 0]>, <183, 14, 28, 14, 15, 0, 1, [1, 1, 0, 0, 0, 0, 0, 0]>, <184, 15, 29, 14, 15, 0, 1, [1, 1, 0, 0, 0, 0, 0, 0]>, <185, 17, 31, 14, 15, 0, 1, [1, 1, 0, 0, 0, 0, 0, 0]>, <186, 18, 32, 14, 15, 0, 1, [1, 1, 0, 0, 0, 0, 0, 0]>, <187, 19, 33, 14, 15, 0, 1, [1, 1, 0, 0, 0, 0, 0, 0]>, <188, 20, 34, 14, 15, 0, 1, [1, 1, 0, 0, 0, 0, 0, 0]>, <189, 21, 35, 14, 15, 0, 1, [1, 1, 0, 0, 0, 0, 0, 0]>, <190, 4, 17, 13, 16, 1, 0, [0, 0, 1, 1, 0, 0, 0, 0]>, <191, 5, 18, 13, 16, 1, 0, [0, 0, 1, 1, 0, 0, 0, 0]>, <192, 6, 19, 13, 16, 1, 0, [0, 0, 1, 1, 0, 0, 0, 0]>, <193, 13, 26, 13, 16, 1, 0, [0, 0, 1, 1, 0, 0, 0, 0]>, <194, 14, 27, 13, 16, 1, 0, [0, 0, 1, 1, 0, 0, 0, 0]>, <195, 15, 28, 13, 16, 1, 0, [0, 0, 1, 1, 0, 0, 0, 0]>, <196, 18, 31, 13, 16, 1, 0, [0, 0, 1, 1, 0, 0, 0, 0]>, <197, 19, 32, 13, 16, 1, 0, [0, 0, 1, 1, 0, 0, 0, 0]>, <198, 20, 33, 13, 16, 1, 0, [0, 0, 1, 1, 0, 0, 0, 0]>, <199, 21, 34, 13, 16, 1, 0, [0, 0, 1, 1, 0, 0, 0, 0]>, <200, 22, 35, 13, 16, 1, 0, [0, 0, 1, 1, 0, 0, 0, 0]>, <201, 2, 17, 15, 17, 0, 1, [0, 0, 1, 1, 0, 0, 0, 0]>, <202, 3, 18, 15, 17, 0, 1, [0, 0, 1, 1, 0, 0, 0, 0]>, <203, 4, 19, 15, 17, 0, 1, [0, 0, 1, 1, 0, 0, 0, 0]>, <204, 5, 20, 15, 17, 0, 1, [0, 0, 1, 1, 0, 0, 0, 0]>, <205, 6, 21, 15, 17, 0, 1, [0, 0, 1, 1, 0, 0, 0, 0]>, <206, 11, 26, 15, 17, 0, 1, [0, 0, 1, 1, 0, 0, 0, 0]>, <207, 12, 27, 15, 17, 0, 1, [0, 0, 1, 1, 0, 0, 0, 0]>, <208, 13, 28, 15, 17, 0, 1, [0, 0, 1, 1, 0, 0, 0, 0]>, <209, 14, 29, 15, 17, 0, 1, [0, 0, 1, 1, 0, 0, 0, 0]>, <210, 15, 30, 15, 17, 0, 1, [0, 0, 1, 1, 0, 0, 0, 0]>, <211, 16, 31, 15, 17, 0, 1, [0, 0, 1, 1, 0, 0, 0, 0]>, <212, 17, 32, 15, 17, 0, 1, [0, 0, 1, 1, 0, 0, 0, 0]>, <213, 18, 33, 15, 17, 0, 1, [0, 0, 1, 1, 0, 0, 0, 0]>, <214, 19, 34, 15, 17, 0, 1, [0, 0, 1, 1, 0, 0, 0, 0]>, <215, 20, 35, 15, 17, 0, 1, [0, 0, 1, 1, 0, 0, 0, 0]>, <216, 5, 15, 10, 18, 0, 0, [1, 0, 0, 0, 0, 0, 0, 1]>, <217, 6, 16, 10, 18, 0, 0, [1, 0, 0, 0, 0, 0, 0, 1]>, <218, 14, 24, 10, 18, 0, 0, [1, 0, 0, 0, 0, 0, 0, 1]>, <219, 15, 25, 10, 18, 0, 0, [1, 0, 0, 0, 0, 0, 0, 1]>, <220, 21, 31, 10, 18, 0, 0, [1, 0, 0, 0, 0, 0, 0, 1]>, <221, 22, 32, 10, 18, 0, 0, [1, 0, 0, 0, 0, 0, 0, 1]>, <222, 23, 33, 10, 18, 0, 0, [1, 0, 0, 0, 0, 0, 0, 1]>, <223, 24, 34, 10, 18, 0, 0, [1, 0, 0, 0, 0, 0, 0, 1]>, <224, 5, 14, 9, 19, 0, 1, [0, 0, 0, 0, 0, 1, 1, 0]>, <225, 6, 15, 9, 19, 0, 1, [0, 0, 0, 0, 0, 1, 1, 0]>, <226, 14, 23, 9, 19, 0, 1, [0, 0, 0, 0, 0, 1, 1, 0]>, <227, 15, 24, 9, 19, 0, 1, [0, 0, 0, 0, 0, 1, 1, 0]>, <228, 22, 31, 9, 19, 0, 1, [0, 0, 0, 0, 0, 1, 1, 0]>, <229, 23, 32, 9, 19, 0, 1, [0, 0, 0, 0, 0, 1, 1, 0]>, <230, 24, 33, 9, 19, 0, 1, [0, 0, 0, 0, 0, 1, 1, 0]>, <231, 5, 16, 11, 20, 0, 0, [0, 0, 0, 0, 0, 1, 1, 0]>, <232, 6, 17, 11, 20, 0, 0, [0, 0, 0, 0, 0, 1, 1, 0]>, <233, 14, 25, 11, 20, 0, 0, [0, 0, 0, 0, 0, 1, 1, 0]>, <234, 15, 26, 11, 20, 0, 0, [0, 0, 0, 0, 0, 1, 1, 0]>, <235, 20, 31, 11, 20, 0, 0, [0, 0, 0, 0, 0, 1, 1, 0]>, <236, 21, 32, 11, 20, 0, 0, [0, 0, 0, 0, 0, 1, 1, 0]>, <237, 22, 33, 11, 20, 0, 0, [0, 0, 0, 0, 0, 1, 1, 0]>, <238, 23, 34, 11, 20, 0, 0, [0, 0, 0, 0, 0, 1, 1, 0]>, <239, 24, 35, 11, 20, 0, 0, [0, 0, 0, 0, 0, 1, 1, 0]>, <240, 3, 17, 14, 21, 0, 1, [1, 0, 0, 0, 0, 0, 0, 1]>, <241, 4, 18, 14, 21, 0, 1, [1, 0, 0, 0, 0, 0, 0, 1]>, <242, 5, 19, 14, 21, 0, 1, [1, 0, 0, 0, 0, 0, 0, 1]>, <243, 6, 20, 14, 21, 0, 1, [1, 0, 0, 0, 0, 0, 0, 1]>, <244, 12, 26, 14, 21, 0, 1, [1, 0, 0, 0, 0, 0, 0, 1]>, <245, 13, 27, 14, 21, 0, 1, [1, 0, 0, 0, 0, 0, 0, 1]>, <246, 14, 28, 14, 21, 0, 1, [1, 0, 0, 0, 0, 0, 0, 1]>, <247, 15, 29, 14, 21, 0, 1, [1, 0, 0, 0, 0, 0, 0, 1]>, <248, 17, 31, 14, 21, 0, 1, [1, 0, 0, 0, 0, 0, 0, 1]>, <249, 18, 32, 14, 21, 0, 1, [1, 0, 0, 0, 0, 0, 0, 1]>, <250, 19, 33, 14, 21, 0, 1, [1, 0, 0, 0, 0, 0, 0, 1]>, <251, 20, 34, 14, 21, 0, 1, [1, 0, 0, 0, 0, 0, 0, 1]>, <252, 21, 35, 14, 21, 0, 1, [1, 0, 0, 0, 0, 0, 0, 1]>};
